# some parameters

 Title: C=CCC.CC(=O)O

0 1
C           -2.71861  -1.35189  -0.09150
C           -2.28192   0.03603  -0.57056
C           -1.45216   0.83035   0.40954
C           -0.60253   1.79228   0.03570
O            1.55157   1.00030  -0.18925
C            1.65942  -0.18555   0.05412
C            2.86265  -0.96128  -0.38413
O            0.74004  -0.91937   0.70764
H           -3.19041   0.61794  -0.78963
H           -1.74533  -0.04703  -1.52514
H           -0.03840  -0.32172   0.81922
H           -1.68306   0.70453   1.47127
H           -0.40896   2.00489  -1.01114
H           -0.09805   2.43460   0.74733
H           -3.25331  -1.28709   0.86433
H           -3.39589  -1.81604  -0.81690
H           -1.86337  -2.02323   0.04821
H            3.18813  -1.66773   0.38440
H            2.61998  -1.53670  -1.28543
H            3.65943  -0.25480  -0.62016

some basis functions

