# some parameters

 Title: C

0 1
C           -0.00032   0.00004   0.00049
H           -0.62845  -0.81696  -0.33040
H           -0.43796   0.93979  -0.31064
H            0.08243  -0.02086   1.08003
H            0.98430  -0.10192  -0.43948

some basis functions

