#


# CASSCF + MCRPA for C2H4


#

! DEF2-SVP DEF2-TZVP/C VeryTightSCF

%casscf 
 nel          2 
 norb         2
 mult         1
 nroots       1
 gtol 1e-6
 etol 1e-10
end

%mcrpa
 nroots       8
end

* int 0 1
C  0  0  0 0         0    0
C  1  0  0 1.3385    0    0
H  1  2  0 1.07    120    0
H  1  2  3 1.07    120  180
H  2  1  3 1.07    120    0
H  2  1  3 1.07    120  180
*
