! bt-PNO-EOM-CCSD def2-TZVP def2-TZVP/C def2/J TightSCF

%mdci
  nroots 9
end

*xyz 0 1
  C     0.016227   -0.000000    0.000000
  O     1.236847    0.000000   -0.000000
  H    -0.576537    0.951580   -0.000000
  H    -0.576537   -0.951580   -0.000000
*
