!PBE0 DEF2-SVP TIGHTSCF
%TDDFT  NROOTS  5
        IROOT   2
        NACME   TRUE
END
* xyz 0 1
O        0.000000000      0.000000000      0.611403292
C        0.000000000      0.000000000     -0.613232096
H        0.931880792      0.000000000     -1.200880848
H       -0.931880792      0.000000000     -1.200880848
*
