%mem=60GB
%nprocshared=32
%chk=C3.chk
#p B3LYP def2svp opt freq EmpiricalDispersion=GD3BJ pop=nboread 

 Title: C3

0 1
C            1.43164  -1.06496  -0.00131
C            1.85564   0.30583  -0.00220
H            2.07601  -1.93767  -0.00249
H            2.88020   0.66232  -0.00422
C           -0.40983   0.25555   0.00219
N            0.69858   1.09729  -0.00010
N            0.02989  -1.06496   0.00141
C            0.66215   2.56683  -0.00027
C            0.64235   3.26393  -1.20863
C            0.64726   3.26433   1.20754
C            0.60835   4.65823  -1.20908
C            0.61226   4.65903   1.20727
C            0.59294   5.35604  -0.00076
H            0.59338   5.20777  -2.16149
H            0.60012   5.20870   2.15974
C           -0.82981  -2.25736   0.00314
C           -1.23535  -2.82312   1.21224
C           -1.24021  -2.82311  -1.20394
C           -2.05056  -3.95478   1.21416
C           -2.05648  -3.95453  -1.20219
C           -2.46157  -4.52050   0.00658
H           -2.36974  -4.40115   2.16714
H           -2.38024  -4.40015  -2.15407
C            0.66886   2.49508   2.54148
H            0.57963   1.40417   2.29322
C            0.65988   2.49346  -2.54192
H            0.14002   1.51499  -2.36292
C           -0.79290  -2.19864  -2.53869
H           -1.16371  -1.13934  -2.54653
C           -0.78112  -2.19879   2.54471
H           -0.29480  -1.21756   2.29899
Pd          -2.36837   0.86103   0.00550
Cl          -1.78128   2.75403   1.11220
C           -4.99943   0.14283  -0.39181
C           -4.39913   1.83657   1.12811
C           -4.68033   0.56134   0.83802
H           -5.03896   0.84151  -1.20124
C           -5.30991  -1.34455  -0.64263
H           -4.14999   2.11474   2.13083
H           -4.42335   2.57844   0.35743
H           -4.64845  -0.15921   1.62839
C           -5.25836  -2.25549   0.41283
C           -5.64276  -1.78101  -1.92492
C           -5.53895  -3.60270   0.18582
H           -4.99516  -1.91121   1.42349
C           -5.92443  -3.12842  -2.15196
H           -5.68361  -1.06314  -2.75686
C           -5.87244  -4.03929  -1.09690
H           -5.49772  -4.32088   1.01757
H           -6.18724  -3.47220  -3.16302
H           -6.09369  -5.10155  -1.27563
C           -1.42955  -2.97397  -3.70709
C           -0.61850  -3.63918  -4.62696
C           -2.81697  -3.01127  -3.84569
C           -1.19481  -4.34096  -5.68554
H            0.47531  -3.60894  -4.51785
C           -3.39365  -3.71404  -4.90397
H           -3.45636  -2.48718  -3.12067
C           -2.58284  -4.37872  -5.82393
H           -0.55558  -4.86479  -6.41099
H           -4.48762  -3.74362  -5.01276
H           -3.03702  -4.93216  -6.65863
C            0.74501  -2.20491  -2.61865
C            1.47220  -3.21436  -1.98723
C            1.41096  -1.20152  -3.32240
C            2.86505  -3.21995  -2.05903
H            0.94691  -4.00484  -1.43185
C            2.80419  -1.20752  -3.39514
H            0.83797  -0.40594  -3.82026
C            3.53129  -2.21642  -2.76350
H            3.43832  -4.01522  -1.56083
H            3.32897  -0.41648  -3.95043
H            4.62951  -2.22107  -2.82001
C            2.11745   2.23061  -2.96382
C            2.44845   2.15103  -4.31681
C            3.10674   2.07220  -1.99336
C            3.76833   1.91242  -4.69915
H            1.66815   2.27519  -5.08163
C            4.42724   1.83450  -2.37568
H            2.84607   2.13507  -0.92695
C            4.75815   1.75446  -3.72832
H            4.02920   1.84906  -5.76557
H            5.20711   1.71006  -1.61030
H            5.79878   1.56639  -4.03002
C           -0.10853   3.29553  -3.60861
C           -0.59303   4.56909  -3.30898
C           -0.32005   2.74887  -4.87430
C           -1.28946   5.29548  -4.27467
H           -0.42677   4.99948  -2.31080
C           -1.01583   3.47575  -5.84071
H            0.06189   1.74519  -5.11067
C           -1.50065   4.74882  -5.54108
H           -1.67192   6.29907  -4.03838
H           -1.18209   3.04464  -6.83869
H           -2.04974   5.32176  -6.30235
C           -0.53355   2.92568   3.40193
C           -0.85054   2.21778   4.56162
C           -1.30565   4.02343   3.02200
C           -1.93980   2.60720   5.34077
H           -0.24210   1.35191   4.86046
C           -2.39468   4.41371   3.80181
H           -1.05585   4.58159   2.10811
C           -2.71194   3.70573   4.96097
H           -2.19010   2.04889   6.25452
H           -3.00302   5.27953   3.50222
H           -3.57070   4.01263   5.57549
C            2.00691   2.75041   3.25985
C            2.55145   4.03468   3.28441
C            2.67437   1.69782   3.88603
C            3.76352   4.26608   3.93446
H            2.02537   4.86415   2.78999
C            3.88633   1.92932   4.53716
H            2.24523   0.68559   3.86692
C            4.43104   3.21316   4.56135
H            4.19311   5.27820   3.95332
H            4.41216   1.09928   5.03114
H            5.38667   3.39586   5.07387
C            0.24580  -3.12522   3.22203
C            0.90722  -2.70708   4.37709
C            0.51461  -4.38237   2.68086
C            1.83771  -3.54568   4.99039
H            0.69564  -1.71560   4.80305
C            1.44463  -5.22175   3.29479
H           -0.00673  -4.71217   1.77061
C            2.10628  -4.80358   4.44930
H            2.35955  -3.21591   5.90046
H            1.65607  -6.21307   2.86811
H            2.83994  -5.46465   4.93307
C           -2.00870  -1.95310   3.44152
C           -1.86341  -1.27606   4.65271
C           -3.26583  -2.40732   3.04291
C           -2.97493  -1.05392   5.46536
H           -0.87206  -0.91877   4.96704
C           -4.37795  -2.18432   3.85523
H           -3.38055  -2.94079   2.08826
C           -4.23269  -1.50787   5.06637
H           -2.86038  -0.52083   6.42034
H           -5.36908  -2.54220   3.54050
H           -5.10894  -1.33255   5.70725
C           -3.36177  -5.76999   0.00905
H           -2.75559  -6.64611   0.10837
H           -4.04617  -5.71489   0.82970
H           -3.90902  -5.81714  -0.90921
C            0.55532   6.89558  -0.00161
H            1.25285   7.26900  -0.72196
H           -0.42999   7.22814  -0.25352
H            0.81697   7.25928   0.97007





