%nproc=16
%mem=32GB
%chk=oos_da_pred_0_7_0.chk
# p opt=modredundant freq b3lyp/def2svp EmpiricalDispersion=GD3BJ geom=PrintInputOrient scrf=(smd, solvent=water)

title

0 1
C         -2.436950       -0.533762       -2.668520
N         -1.672538       -0.653629       -1.442636
C         -2.286472       -0.935078       -0.290508
O         -3.512156       -1.089796       -0.205424
C         -1.541303       -1.097413        1.011582
C         -0.346632        0.746440        0.939544
C          0.595418        0.498080        0.159830
C          0.569566       -2.199357        0.545093
C          0.452930       -2.850285       -0.755609
C         -0.834145       -3.551404       -1.151341
O          1.427817       -2.948493       -1.520717
C          1.846365       -2.236428        1.301031
C          2.941589       -3.191643        0.901517
O          2.000152       -1.535021        2.309221
N         -0.558374       -1.949052        1.330366
C         -0.592736       -2.422637        2.733459
C          1.448643        0.827746       -0.986076
O          1.009399       -0.061365       -2.011428
C          1.573981        0.008048       -3.309484
C          2.949440        0.621265       -0.639534
F          3.222721        1.110757        0.578696
F          3.763378        1.242656       -1.505119
F          3.289693       -0.673213       -0.643559
C          1.243228        2.319102       -1.361815
C         -0.211424        2.806700       -1.367328
C         -0.591001        3.692177       -0.174456
C         -0.237961        3.219770        1.245756
C         -0.867868        1.888332        1.747723
C         -0.404324        1.690565        3.207853
F         -2.825274        3.188657        2.171806
F         -2.849246        1.878173        0.452275
F         -3.027445        1.065597        2.447114
C         -2.407634        2.001919        1.707219
F         -0.817035        2.694559        4.009433
F         -0.854653        0.546142        3.760193
F          0.934577        1.637160        3.273293
H         -3.180712        0.275319       -2.597236
H         -2.968535       -1.464847       -2.906152
H         -1.739597       -0.299995       -3.484417
H         -0.664914       -0.494340       -1.498561
H         -2.265523       -0.982726        1.823182
H         -1.164146       -3.207532       -2.131230
H         -0.587644       -4.627881       -1.242438
H         -1.656352       -3.444415       -0.431204
H          2.532286       -4.193798        0.672927
H          3.475858       -2.849563        0.011317
H          3.641321       -3.265033        1.734614
H         -1.613856       -2.701338        2.968679
H          0.040304       -3.314998        2.835097
H         -0.242250       -1.644634        3.422848
H          1.140636       -0.839359       -3.854809
H          2.667475       -0.095210       -3.297967
H          1.306474        0.938797       -3.830183
H          1.847620        2.937773       -0.677388
H          1.703090        2.459223       -2.360622
H         -0.903187        1.950336       -1.457515
H         -0.380965        3.413006       -2.276493
H         -1.658502        3.943693       -0.231321
H         -0.062761        4.654863       -0.283181
H         -0.511990        4.013724        1.961338
H          0.852140        3.083666        1.331263

B 5 6 F
B 7 8 F

--link1--
%oldchk=oos_da_pred_0_7_0.chk
%nproc=16
%mem=32GB
# p opt=(ts,readfc,noeigen,nofreeze,notrust,maxcycle=250) freq b3lyp/def2svp EmpiricalDispersion=GD3BJ geom=(allcheck,PrintInputOrient) guess=tcheck scrf=(smd, solvent=water)

--link1--
%oldchk=oos_da_pred_0_7_0.chk
%nproc=16
%mem=32GB
# B3LYP def2tzvp EmpiricalDispersion=GD3BJ scrf=(smd,solvent=Water) geom=(allcheck,PrintInputOrient) guess=tcheck

