%chk=peptide_ligand.chk
# g16 gjf

Title: peptide_ligand

0 1
 C                 -4.21889000   -1.67806000   -1.48144000
 C                 -4.40349000   -3.21451000   -3.30775000
 C                 -4.88819000   -2.72098000   -2.10741000
 N                 -3.09087000   -1.13831000   -1.97872000
 H                 -4.92338000   -4.00754000   -3.84471000
 H                 -5.79149000   -3.12519000   -1.65418000
 H                 -4.57624000   -1.25366000   -0.55112000
 C                 -2.72054000   -3.12712000   -5.15326000
 C                 -2.43456000   -2.26489000   -6.23190000
 C                 -2.48313000   -4.49520000   -5.31839000
 C                 -1.86381000   -2.78845000   -7.39808000
 C                 -1.91954000   -5.00999000   -6.47978000
 C                 -1.59225000   -4.14563000   -7.52013000
 H                 -2.70671000   -5.16118000   -4.48553000
 H                 -1.66593000   -2.11145000   -8.22938000
 H                 -1.72630000   -6.07834000   -6.56112000
 H                 -1.14838000   -4.52695000   -8.43842000
 N                 -2.68658000   -0.88588000   -6.17048000
 H                 -2.12146000   -0.31175000   -6.79393000
 C                 -3.95180000   -0.35371000   -5.88420000
 O                 -4.90441000   -1.02853000   -5.51577000
 N                 -3.97635000    1.01124000   -6.02168000
 H                 -3.16602000    1.45541000   -6.45227000
 C                 -5.23453000    1.73561000   -6.04570000
 C                 -5.67856000    2.03514000   -7.47977000
 C                 -6.97112000    2.84306000   -7.51818000
 C                 -6.83909000    4.12855000   -6.70961000
 C                 -6.42463000    3.82371000   -5.27440000
 C                 -5.13196000    3.01554000   -5.21967000
 H                 -5.96803000    1.06252000   -5.57916000
 H                 -5.78686000    1.08939000   -8.02770000
 H                 -4.87697000    2.60116000   -7.98416000
 H                 -7.25160000    3.06329000   -8.55674000
 H                 -7.79002000    2.23588000   -7.09967000
 H                 -7.78087000    4.69322000   -6.72462000
 H                 -6.08011000    4.77664000   -7.17718000
 H                 -6.31742000    4.74993000   -4.69393000
 H                 -7.22933000    3.24593000   -4.78795000
 H                 -4.86597000    2.76408000   -4.18124000
 H                 -4.29977000    3.62756000   -5.61013000
 C                 -1.92841000    3.43397000   -2.80027000
 H                 -2.81636000    3.35780000   -3.44511000
 H                 -1.23360000    4.14043000   -3.28546000
 H                 -2.26094000    3.88091000   -1.86152000
 C                 -1.28732000    2.06724000   -2.60094000
 H                 -2.96639000    1.60472000   -1.92963000
 H                 -0.28258000    2.20047000   -2.17636000
 C                 -1.17031000    1.31611000   -3.91069000
 H                 -0.59592000    0.39382000   -3.76907000
 H                 -2.16350000    1.01834000   -4.27607000
 C                 -0.49203000    2.15878000   -5.01234000
 H                 -1.12909000    3.00809000   -5.28094000
 H                  0.45807000    2.56935000   -4.63978000
 C                 -0.32013000    1.34291000   -6.26367000
 O                 -1.17007000    1.39158000   -7.17116000
 N                  0.74906000    0.50046000   -6.34791000
 C                  1.65132000    0.19763000   -5.25723000
 H                  1.46880000   -0.82088000   -4.88179000
 H                  2.69488000    0.25051000   -5.59874000
 H                  1.52796000    0.89147000   -4.42434000
 C                  0.88712000   -0.36421000   -7.50198000
 H                  0.61156000   -1.40011000   -7.25220000
 H                  0.23524000    0.00072000   -8.29699000
 H                  1.92934000   -0.35809000   -7.84452000
 Ir                -2.14346000    0.80232000   -0.76652000
 H                  2.76212000    0.08747000   -2.58683000
 C                  2.77872000   -0.98848000   -2.43202000
 H                  4.86639000   -1.23196000   -2.82276000
 C                  3.92897000   -1.72133000   -2.55796000
 C                  1.48160000   -2.99734000   -1.87330000
 C                  3.92699000   -3.10940000   -2.28321000
 C                  1.57581000   -1.63317000   -2.09508000
 C                  2.70333000   -3.75419000   -1.90701000
 C                  5.12954000   -3.85681000   -2.30741000
 H                  1.87126000   -5.59935000   -1.13725000
 C                  5.15080000   -5.18109000   -1.94031000
 H                  6.04782000   -3.34667000   -2.60198000
 H                  6.08466000   -5.74045000   -1.95155000
 C                  3.96103000   -5.80286000   -1.51097000
 H                  3.98273000   -6.83857000   -1.17611000
 C                  2.77287000   -5.10920000   -1.49562000
 C                 -0.64907000   -3.05103000   -0.58611000
 C                  0.17168000   -3.60873000   -1.56107000
 C                 -2.27905000   -4.80636000   -0.78366000
 C                 -0.30265000   -4.78295000   -2.24079000
 C                 -1.87221000   -3.63423000   -0.20297000
 C                 -1.51239000   -5.41485000   -1.80455000
 C                  0.37609000   -5.35739000   -3.34558000
 H                 -2.47092000   -3.11165000    0.53894000
 H                 -2.83882000   -7.09881000   -2.04928000
 H                 -3.21667000   -5.27279000   -0.47990000
 C                 -0.05389000   -6.53157000   -3.91954000
 H                  1.25593000   -4.85760000   -3.74330000
 H                  0.49244000   -6.94633000   -4.76524000
 C                 -1.20170000   -7.19074000   -3.43566000
 H                 -1.52732000   -8.12506000   -3.89035000
 C                 -1.92551000   -6.62575000   -2.41192000
 O                  0.43921000   -0.83053000   -2.04241000
 O                 -0.24358000   -1.93483000    0.12675000
 B                 -1.59874000    2.46155000    0.33134000
 B                 -2.80637000    0.06371000    1.12036000
 B                 -4.13480000    1.60359000   -0.65687000
 O                 -5.21135000    0.85832000   -0.17873000
 O                 -4.56278000    2.84752000   -1.08691000
 O                 -2.80864000    0.80262000    2.29943000
 O                 -3.32132000   -1.20523000    1.35983000
 O                 -0.43483000    2.58051000    1.08710000
 O                 -2.32307000    3.64937000    0.38852000
 C                 -6.42434000    1.56198000   -0.56812000
 C                 -5.91882000    3.02838000   -0.61818000
 C                 -3.58111000    0.10141000    3.29983000
 C                 -3.57194000   -1.37265000    2.77332000
 C                 -1.48028000    4.65945000    0.98572000
 C                 -0.52858000    3.80566000    1.86657000
 C                 -6.82689000    1.02240000   -1.93640000
 H                 -6.97150000   -0.06211000   -1.87598000
 H                 -6.04270000    1.20785000   -2.68301000
 H                 -7.76058000    1.47326000   -2.29558000
 C                 -7.50480000    1.28680000    0.45727000
 H                 -7.73477000    0.21453000    0.48422000
 H                 -8.42871000    1.82016000    0.19797000
 H                 -7.20426000    1.59495000    1.46335000
 C                 -5.82918000    3.67706000    0.75752000
 H                 -6.82089000    3.91600000    1.16201000
 H                 -5.24996000    4.60256000    0.67678000
 H                 -5.30474000    3.02321000    1.46678000
 C                 -6.65313000    3.92259000   -1.59425000
 H                 -6.59650000    3.53012000   -2.61320000
 H                 -6.20906000    4.92470000   -1.59473000
 H                 -7.71139000    4.02106000   -1.31812000
 C                 -1.15106000    3.47056000    3.21589000
 H                 -0.54268000    2.71540000    3.72389000
 H                 -2.16011000    3.06282000    3.09134000
 H                 -1.19891000    4.36088000    3.85585000
 C                  0.86107000    4.38312000    2.05569000
 H                  1.46023000    3.73196000    2.70269000
 H                  0.80412000    5.36832000    2.53828000
 H                  1.39426000    4.49888000    1.10582000
 C                 -2.35898000    5.63300000    1.74832000
 H                 -1.75073000    6.35553000    2.30866000
 H                 -3.01609000    5.11275000    2.45208000
 H                 -2.98935000    6.19606000    1.04992000
 C                 -0.74528000    5.38164000   -0.13791000
 H                 -0.11862000    6.19554000    0.24716000
 H                 -1.46912000    5.80769000   -0.84143000
 H                 -0.10199000    4.68804000   -0.69603000
 C                 -2.43556000   -2.21667000    3.34103000
 H                 -2.56796000   -2.40695000    4.41325000
 H                 -1.45890000   -1.73855000    3.19621000
 H                 -2.40329000   -3.18478000    2.82822000
 C                 -4.89157000   -2.11011000    2.92342000
 H                 -5.17638000   -2.21087000    3.97913000
 H                 -4.80261000   -3.11940000    2.50263000
 H                 -5.69947000   -1.59542000    2.39222000
 C                 -2.91889000    0.29365000    4.65180000
 H                 -3.45371000   -0.26081000    5.43444000
 H                 -2.92584000    1.35502000    4.92550000
 H                 -1.87803000   -0.04406000    4.64388000
 C                 -4.96730000    0.73185000    3.30367000
 H                 -5.62960000    0.26916000    4.04615000
 H                 -5.42739000    0.64684000    2.31318000
 H                 -4.87604000    1.79828000    3.54438000
 P                 -0.18881000   -0.42196000   -0.56955000
 O                  1.24463000    0.03563000    0.10089000
 C                  1.51720000    0.43076000    1.38891000
 C                  2.75004000    1.03051000    1.60869000
 C                  0.89036000    0.61869000    3.70039000
 C                  3.01846000    1.54671000    2.91557000
 C                  0.60092000    0.19541000    2.43149000
 C                  2.07838000    1.33632000    3.97452000
 C                  4.16565000    2.33124000    3.19029000
 H                  1.60905000    1.71103000    6.04692000
 H                  0.18413000    0.44183000    4.51218000
 C                  4.37258000    2.87788000    4.43617000
 H                  4.87738000    2.51637000    2.38750000
 H                  5.25365000    3.49244000    4.61511000
 C                  3.45758000    2.64676000    5.48375000
 H                  3.63600000    3.07807000    6.46713000
 C                  2.33580000    1.88583000    5.25266000
 C                  4.98542000    0.41202000    0.72798000
 C                  3.77991000    1.09517000    0.54190000
 C                  5.79345000    1.10268000   -1.44943000
 C                  3.57798000    1.81636000   -0.67547000
 C                  5.98790000    0.43008000   -0.27121000
 C                  4.59191000    1.80586000   -1.69013000
 C                  2.39194000    2.55307000   -0.93323000
 H                  6.92165000   -0.09240000   -0.07667000
 H                  5.14635000    2.44459000   -3.67657000
 H                  6.57132000    1.10850000   -2.21408000
 C                  2.21136000    3.21056000   -2.13090000
 H                  1.60964000    2.58237000   -0.17446000
 H                  1.29391000    3.77421000   -2.30172000
 C                  3.19718000    3.16757000   -3.13992000
 H                  3.03443000    3.68661000   -4.08388000
 C                  4.36625000    2.47961000   -2.91477000
 O                  5.23900000   -0.20484000    1.90626000
 Si                 5.61203000   -1.79460000    2.37219000
 C                  3.99805000   -2.75859000    2.53935000
 H                  4.27722000   -3.79841000    2.78637000
 C                  6.53285000   -1.56208000    4.00524000
 H                  7.53789000   -1.19884000    3.72935000
 C                  6.70894000   -2.63804000    1.06770000
 H                  6.30018000   -2.33549000    0.08598000
 C                  3.08633000   -2.23257000    3.64391000
 H                  2.91729000   -1.15351000    3.54173000
 H                  3.50170000   -2.40799000    4.64470000
 H                  2.09801000   -2.71521000    3.60546000
 C                  3.28147000   -2.77566000    1.18991000
 H                  3.89518000   -3.24265000    0.40973000
 H                  3.03463000   -1.76083000    0.84515000
 H                  2.33289000   -3.33151000    1.23866000
 C                  6.63247000   -4.16552000    1.13476000
 H                  7.27513000   -4.62315000    0.36828000
 H                  5.61594000   -4.54267000    0.96971000
 H                  6.97541000   -4.54912000    2.10641000
 C                  8.16844000   -2.18710000    1.14615000
 H                  8.75549000   -2.57161000    0.29986000
 H                  8.64519000   -2.56379000    2.06211000
 H                  8.28393000   -1.09456000    1.15851000
 C                  6.70503000   -2.89512000    4.73710000
 H                  7.23997000   -3.64255000    4.13505000
 H                  5.73377000   -3.33182000    5.01038000
 H                  7.27105000   -2.76621000    5.67040000
 C                  5.90552000   -0.50816000    4.91732000
 H                  5.80250000    0.45864000    4.41283000
 H                  6.51647000   -0.35768000    5.81929000
 H                  4.90218000   -0.79991000    5.25475000
 H                 -0.34918000   -0.28396000    2.20594000
 C                 -2.62689431   -1.62883501   -3.13351568
 C                 -3.37816808   -2.77384158   -3.83789318
 H                 -1.81579093   -1.26441220   -3.53025114

