%chk=spec_zmat_alt_marker.chk
#p hf/3-21g opt

Z-matrix trailing 0/1 marker forms

! Source: gaussian.com/zmat/ alternate z-matrix format marker (0=dihedral, 1=alternate angle form)
0 1
O
H 1 0.9600
H 1 0.9700 2 104.5000 0
H 1 1.5000 2 110.0000 3 120.0000 1
