%chk=spec_zmat_invalid_alt_second_angle.chk
#p hf/3-21g opt

Invalid alternate Z-matrix second angle

! Source: gaussian.com/zmat/ alternate two-angle rows still require valid angle domains
0 1
O
H 1 0.9600
H 1 0.9700 2 104.5000 0
H 1 1.5000 2 110.0000 3 180.0000 1
