#p hf/3-21g sp

integer cartesian coords

0 1
H 0 0 0
