%chk=spec_fragments_invalid_gap.chk
#p b3lyp/6-31g(d)

Invalid multi-fragment with fragment id gap

! Source: gaussian.com/molspec/ fragment numbering should align with declared fragment charge/spin pairs
0 1 0 1 0 1
Na(Fragment=1) 0.000000 0.000000 0.000000
Cl(Fragment=3) 2.300000 0.000000 0.000000
