%nprocshared=32
%mem=60GB
# opt=(modredundant,maxcycle=150) freq b3lyp/genecp
empiricaldispersion=gd3bj

Title Card Required

0 3
C      0.000000    0.000000    0.000000
C      2.307938    0.000000    0.000000
C      0.551281    1.455665    0.000000
H     -0.534948   -0.259711    0.912472
H      0.285704    2.016486   -0.895964
H      0.278983    2.038113    0.877842
H     -0.583783   -0.246039   -0.885189
N      2.047530    1.259741    0.008719
O      1.243330   -0.862692   -0.039545
C      6.760990    0.754338    1.457474
C      4.696381    0.278635    0.542206
C      5.943716    2.058450    1.244045
H      7.640334    0.698190    0.816078
H      5.677849    2.549412    2.181628
H      6.448703    2.757574    0.572429
H      7.014602    0.553909    2.496806
N      4.665040    1.565793    0.595429
O      5.823460   -0.343458    1.010135
C      3.669713   -0.627992   -0.076903
Cu     3.328877    2.665479   -0.156937
C      3.669647   -2.004753    0.618788
H      3.418008   -1.901497    1.677888
H      2.927090   -2.643755    0.139759
H      4.662067   -2.447796    0.532686
C      4.032693   -0.776346   -1.592101
H      5.011220   -1.257391   -1.673191
H      3.276414   -1.398086   -2.078448
H      4.072352    0.208312   -2.067119
Cl     1.984177    4.360351    0.662558
C      4.248440    3.374850   -1.648000
C      3.512436    4.138486   -2.590439
C      5.351886    2.615216   -2.213984
C      3.833929    4.212685   -3.960867
H      2.670980    4.722276   -2.226903
C      5.679945    2.648866   -3.535885
H      5.948133    2.004560   -1.548212
C      3.087301    5.007282   -4.877240
C      4.943160    3.452355   -4.465498
H      6.505340    2.052703   -3.915505
C      3.420661    5.047067   -6.214080
H      2.252792    5.586396   -4.497123
C      5.259272    3.513231   -5.837046
C      4.514823    4.296129   -6.703083
H      2.845527    5.659514   -6.898918
H      6.102062    2.937454   -6.205614
H      4.768346    4.338520   -7.755516
C      5.060314    4.865996   -0.477921
C      5.240120    5.316797    0.956396
C      3.920694    5.650205   -1.060827
H      6.085619    6.027416    1.054496
H      4.342828    5.850493    1.313600
H      5.417306    4.417944    1.564324
H      4.093230    6.744897   -1.056296
H      3.054893    5.495011   -0.349155
H      3.596217    5.319376   -2.048973
N      6.305899    4.994915   -1.164331
C      6.919490    6.261898   -0.982562
C      7.155876    3.867002   -1.123161
H      7.978195    6.257478   -0.730739
H      6.374238    6.806878   -0.168969
H      6.773673    6.850107   -1.931221
H      7.117626    3.362632   -2.124633
H      8.219510    4.067568   -0.925336
H      6.786111    3.155320   -0.341766

B 31 39 F

-H -Li -Na -K -Mg -B -Al -C -Si -N -P -O -S -F -Cl 0
6-31G*
****
-Cs -Fe -Co -Ni -Cu -Ag -Au -Pd -Ru -Rh -Os -Ir -Pt -Br -I 0
lanl2dz
****

-Cs -Fe -Co -Ni -Cu -Ag -Au -Pd -Ru -Rh -Os -Ir -Pt -Br -I 0
lanl2dz