%mem=60GB
%nprocshared=32
%chk=H_anion.chk
# B3LYP def2svp Opt freq EmpiricalDispersion=GD3BJ NoSymm scrf(SMD,solvent=ethanol) pop=Hirshfeld

 Title: H_anion

-1 1
H            0.00000   0.00000   0.00000


