#
# Stilbene rotation using MRMP2
#
! def2-TZVP def2/JK RIJCOSX RI-MRMP2

%casscf nel            2
        norb           2
        end

%mrci   maxmemint 2000
        tsel 1e-8
        end


%paras  DIHED = 90,270, 19
        end

* int 0 1
 C     0   0   0   0.000000     0.000     0.000
 C     1   0   0   1.343827     0.000     0.000
 C     2   1   0   1.490606   125.126     0.000
 C     1   2   3   1.489535   125.829   {DIHED}
 C     4   1   2   1.400473   118.696   180.000
 C     4   1   2   1.400488   122.999     0.000
 C     6   4   1   1.395945   120.752   180.000
 C     5   4   1   1.394580   121.061   180.000
 C     8   5   4   1.392286   120.004     0.000
 C     3   2   1   1.400587   118.959   180.000
 C     3   2   1   1.401106   122.779     0.000
 C    11   3   2   1.395422   120.840   180.001
 C    12  11   3   1.392546   120.181     0.000
 C    13  12  11   1.392464   119.663     0.000
 H     1   2   3   1.099419   118.266     0.000
 H     2   1   3   1.100264   118.477   179.999
 H     5   4   1   1.102119   119.965     0.000
 H     6   4   1   1.100393   121.065     0.000
 H     7   6   4   1.102835   119.956   180.000
 H     8   5   4   1.102774   119.989   180.000
 H     9   8   5   1.102847   120.145   180.000
 H    10   3   2   1.102271   120.003     0.000
 H    11   3   2   1.100185   121.130     0.000
 H    12  11   3   1.103001   119.889   180.000
 H    13  12  11   1.102704   120.113   180.000
 H    14  13  12   1.102746   119.941   180.000
*
