! TPSSh D3 def2-SVP def2/J RIJCOSX optTS freq tightSCF noautostart miniprint nopop
%maxcore  1000
%pal nprocs   8 end
%geom Calc_Hess true end
* xyz   0   1
C   0.22139870445333     -2.03253843882055     -0.30062058434772
  C   1.06558729986266      0.54502767049178     -0.12995479296093
  C   1.66771654300347     -1.77899284986330      0.14350648234858
  C   -0.04311091268350     -2.49385221987034     -1.74390971019359
  C   -1.52830101698959     -2.22605904222681     -2.03424021858932
  Rh  -2.09230313283441     -1.46972317293352     -0.16973105387457
  H   0.61551410630798     -1.94598574618394     -2.43433586918236
  H   0.21930596455087     -3.56216075188035     -1.83143102940196
  H   -2.09887620456550     -3.12794767526634     -2.29876079065612
  H   -1.67296758846314     -1.47820433642278     -2.82561769769811
  H   1.18667594635094      1.49887519554375     -0.66572687153630
  H   1.06893865030113      0.76245838302513      0.95236726845133
  H   1.66178601852461     -1.63887613183379      1.23801895519022
  C   -0.54168363824816     -2.78475172033163      0.72641154616683
  C   -1.53046031970457     -3.71655984916609      0.47934763597506
  H   -1.65844141511788     -4.20262709125653     -0.48775985793227
  H   -2.06715542344183     -4.14736539093395      1.32713697082733
  H   -0.35880328291134     -2.48747726399480      1.76318815410679
  C   -0.22117204316389     -0.08091896154539     -0.52061751013787
  C   -1.41431952015174      0.26137994091395     -0.90833455660753
  Cl  -2.44121694332240     -0.67943513427900      2.12850297721059
  C   -3.88412654261652     -1.34350883174160     -0.54727488341633
  O   -5.01268428303307     -1.29444978277452     -0.76183867748266
  C   2.17624146405390     -0.45557549832001     -0.43025688649759
  H   2.29681969167271     -0.55180823166107     -1.52766820143150
  O   3.39668060902167     -0.11513931857883      0.18317463581450
  C   -2.12809725091842      1.38971763902856     -1.57558467902067
  H   -2.26799535045627      1.10911387763163     -2.63567458789759
  H   -1.46051413589677      2.27505069231678     -1.56471318229381
  Si  4.68490068084292      0.68232415637819     -0.57332585145816
  C   4.11122471733355      2.36587617613782     -1.19721523256417
  H   3.34174971761996      2.25539892569728     -1.97993891112711
  H   3.68384454103093      2.97463166142891     -0.38444006835803
  H   4.94779778993169      2.93131280599278     -1.64044540590178
  C   5.27880258436911     -0.35137476590421     -2.03340269997234
  H   5.54955630678540     -1.37302377208649     -1.72242595484851
  H   4.49825941948398     -0.43150012640731     -2.80853961200704
  H   6.16288675704165      0.10600860116890     -2.50778696952494
  C   5.98731743772437      0.82195572280117      0.80296959157304
  C   5.38784269784299      1.61394388978419      1.98168725888741
  H   4.47369958428417      1.13125840901978      2.36093575990602
  H   6.11384684741605      1.67282737124206      2.81239007811793
  H   5.13268214136974      2.64680775069329      1.69294188120569
  C   6.36935002373216     -0.59203953613786      1.28252667264680
  H   7.10835900245897     -0.53152027427960      2.10152152668890
  H   5.48868759952567     -1.13507833160895      1.65976398235357
  H   6.82031407130731     -1.19100383663924      0.47431013811238
  C   7.23796337857102      1.54653170314565      0.26866905753548
  H   7.00512159309565      2.56797066853830     -0.07497056926196
  H   8.00030796843846      1.63258260297693      1.06350391880734
  H   7.70016846511259      1.00343350696169     -0.57243563416663
  O   -3.38193674032277      1.65631841538843     -1.02714156171444
  Si  -3.68906775803713      2.65599237108413      0.32129717411906
  C   -2.11504280737922      2.86142972466081      1.32888070182080
  H   -1.29412510682219      3.30617511857842      0.74082061216219
  H   -2.30239531724456      3.52850198186423      2.18754091396733
  H   -1.79596971679142      1.88090589476883      1.71990753215723
  C   -4.25409033227070      4.32026837016046     -0.36164349102522
  H   -5.14019460260392      4.19939175274718     -1.00649877715598
  H   -4.52190126976559      5.01411905773148      0.45354755697493
  H   -3.46298332351382      4.80028385934189     -0.96227933891381
  C   -5.05561233727303      1.81958363711949      1.28234122785169
  H   -5.89749415756726      1.55932872208953      0.62049554512708
  H   -4.66562832980268      0.89736192583463      1.74220367192260
  H   -5.43671789868775      2.47673744876430      2.08195271817595
  C   2.57943592849259     -2.96245800396974     -0.18618124548425
  H   2.66010404623516     -3.11708497526347     -1.27341707687251
  H   3.58663312793056     -2.75687644490833      0.20435401830977
  H   2.20956700652100     -3.89278634396205      0.27070257700132
 *
