! B3LYP SV(P) TightSCF KDIIS SOSCF Freq IRC
* xyz 0 2
  C  -0.000   0.001   -0.000
  H   1.290   0.005   -0.006
  H  -0.330   1.050   -0.002
  H  -0.252  -0.532   -0.929
  H  -0.286  -0.545    0.911
  O   2.499   0.220    0.065
  H   2.509   1.085    0.525
*
