# !! If you want to run this optimization: be aware
# !!  that it will take some time!
! BP86 SV(P) Opt
%geom
    ConstrainFragments { 1 } end # constrain all internal
                                 # coordinates of fragment 1
    ConnectFragments
     {1 2 C 12 28}  # connect the fragments via the atom pair 12/28 and 15/28 and
     {1 3 C 15 28}  #  constrain the internal coordinates connecting
                    #  fragments 1/2 and 1/3
      {1 5 O}
      {1 6 O}
      {2 4 O}
      {3 4 O}
    end
    optimizeHydrogens true  # do not constrain any hydrogen position
  end
* xyz 1 2
Fe(1)     -0.847213     -1.548312     -1.216237 newgto "TZVP" end
 N(5)     -0.712253     -2.291076      0.352054 newgto "TZVP" end
 O(5)     -0.521243     -3.342329      0.855804 newgto "TZVP" end
 N(6)     -0.953604     -0.686422     -3.215231 newgto "TZVP" end
 N(3)     -0.338154     -0.678533      3.030265 newgto "TZVP" end
 N(3)     -0.868050      0.768738      4.605152 newgto "TZVP" end
 N(6)     -1.770675      0.099480     -5.112455 newgto "TZVP" end
 N(1)     -2.216029     -0.133298     -0.614782 newgto "TZVP" end
 N(1)     -2.371465     -2.775999     -1.706931 newgto "TZVP" end
 N(1)      0.489683     -2.865714     -1.944343 newgto "TZVP" end
 N(1)      0.690468     -0.243375     -0.860813 newgto "TZVP" end
 N(2)      1.284320      3.558259      6.254287
 C(2)      5.049207      2.620412      6.377683
 C(2)      3.776069      3.471320      6.499073
 C(2)      2.526618      2.691959      6.084652
 C(3)     -0.599599     -0.564699      6.760567
 C(3)     -0.526122     -0.400630      5.274274
 C(3)     -0.194880     -1.277967      4.253789
 C(3)     -0.746348      0.566081      3.234394
 C(6)      0.292699      0.510431     -6.539061
 C(6)     -0.388964      0.079551     -5.279555
 C(6)      0.092848     -0.416283     -4.078708
 C(6)     -2.067764     -0.368729     -3.863111
 C(1)     -0.663232      1.693332     -0.100834
 C(1)     -4.293109     -1.414165     -0.956846
 C(1)     -1.066190     -4.647587     -2.644424
 C(1)      2.597468     -1.667470     -1.451465
 C(1)     -1.953033      1.169088     -0.235289
 C(1)     -3.187993      1.886468      0.015415
 C(1)     -4.209406      0.988964     -0.187584
 C(1)     -3.589675     -0.259849     -0.590758
 C(1)     -3.721903     -2.580894     -1.476315
 C(1)     -4.480120     -3.742821     -1.900939
 C(1)     -3.573258     -4.645939     -2.395341
 C(1)     -2.264047     -4.035699     -2.263491
 C(1)      0.211734     -4.103525     -2.488426
 C(1)      1.439292     -4.787113     -2.850669
 C(1)      2.470808     -3.954284     -2.499593
 C(1)      1.869913     -2.761303     -1.932055
 C(1)      2.037681     -0.489452     -0.943105
 C(1)      2.779195      0.652885     -0.459645
 C(1)      1.856237      1.597800     -0.084165
 C(1)      0.535175      1.024425     -0.348298
 O(4)     -1.208602      2.657534      6.962748
 H(3)     -0.347830     -1.611062      7.033565
 H(3)     -1.627274     -0.387020      7.166806
 H(3)      0.121698      0.079621      7.324626
 H(3)      0.134234     -2.323398      4.336203
 H(3)     -1.286646      1.590976      5.066768
 H(3)     -0.990234      1.312025      2.466155
 H(4)     -2.043444      3.171674      7.047572
 H(2)      1.364935      4.120133      7.126900
 H(2)      0.354760      3.035674      6.348933
 H(2)      1.194590      4.240746      5.475280
 H(2)      2.545448      2.356268      5.027434
 H(2)      2.371622      1.797317      6.723020
 H(2)      3.874443      4.385720      5.867972
 H(2)      3.657837      3.815973      7.554224
 H(2)      5.217429      2.283681      5.331496
 H(2)      5.001815      1.718797      7.026903
 H(6)     -3.086380     -0.461543     -3.469767
 H(6)     -2.456569      0.406212     -5.813597
 H(6)      1.132150     -0.595619     -3.782287
 H(6)      0.040799      1.559730     -6.816417
 H(6)      0.026444     -0.139572     -7.404408
 H(6)      1.392925      0.454387     -6.407850
 H(1)      2.033677      2.608809      0.310182
 H(1)      3.875944      0.716790     -0.424466
 H(1)      3.695978     -1.736841     -1.485681
 H(1)      3.551716     -4.118236     -2.608239
 H(1)      1.487995     -5.784645     -3.308145
 H(1)     -1.133703     -5.654603     -3.084826
 H(1)     -3.758074     -5.644867     -2.813441
 H(1)     -5.572112     -3.838210     -1.826943
 H(1)     -0.580615      2.741869      0.231737
 H(1)     -3.255623      2.942818      0.312508
 H(1)     -5.292444      1.151326     -0.096157
 H(1)     -5.390011     -1.391441     -0.858996
 H(4)     -1.370815      1.780473      7.384747
 H(2)      5.936602      3.211249      6.686961
*
