! B3LYP/G SV(P) Opt
* int 0 1
    C  0 0 0 0.0000   0.000    0.00
    O  1 0 0 1.2029   0.000    0.00
    H  1 2 0 1.1075 122.016    0.00
    H  1 2 3 1.1075 122.016  180.00
*
