! B3LYP/G SV(P) Opt
%geom Scan
        B 0 1 = 1.35, 1.10, 12 # C-O distance that will be scanned
        B 0 2 = 1.20, 1.00, 5  # C-H distance that will be scanned
        A 2 0 1 = 140, 100, 5  # H-C-O angle that will be scanned
        end
      end

* int 0 1
    C  0 0 0 0.0000   0.000    0.00
    O  1 0 0 1.3500   0.000    0.00
    H  1 2 0 1.1075 122.016    0.00
    H  1 2 3 1.1075 122.016  180.00
*
