! BLYP SVP OPT

%tddft
   IRoot 1
end

* xyz 0 1
 C     0.000000     0.000000     0.666723
 C     0.000000     0.000000    -0.666723
 H     0.000000    -0.928802     1.141480
 H    -0.804366    -0.464401    -1.341480
 H     0.000000     0.928802     1.241480
 H     0.804366     0.464401    -1.241480
*
