!XTB NEB-TS
%neb
 neb_end_xyzfile "final.xyz"
end

*xyz 0 1
C      0.416168     0.038758    -0.014077
C      0.041816     0.011798     1.439610
O      1.524458     0.176600    -0.453888
O     -0.654209    -0.127881    -0.803857
H     -0.391037    -0.126036    -1.737478
H     -0.913438     0.507022     1.585301
H     -0.057787    -1.026455     1.750845
H      0.819515     0.485425     2.030252
*
