!B3LYP SV SurfCrossOpt SurfCrossNumFreq
%mecp Mult 1
  end
*xyz 1 3
 C     0.000000     0.000000     0.000000
 H     0.000000     0.000000     1.300000
 H     1.026719     0.000000    -0.363000
 O    -0.879955     0.000000    -1.088889
 H    -0.119662    -0.866667     0.961546
*
