! STO-3G NumFreq
%freq  Restart true  # restart an old calculation
                     # this requires .res.* files to be present
       end
* int 0 1
    C  0 0 0 0.0000   0 0
    C  1 0 0 1.2160   0 0
    H  1 2 0 1.083  180 0
    H  2 1 3 1.083  180 0
*
