# Hartree-Fock orbitals
!def2-tzvp RHF

*xyz 0 1
  Li 0 0 0
  H  0 0 1.597
*
