! def2-svp nofrozencore
%casscf nel  6
        norb 6
        mult 1
        PTMethod SC_NEVPT2
end

# scanning from the outside to the inside
%paras
	R = 2.5,0.7, 30
end

*xyz 0 1
N 0.0 0.0 0.0
N 0.0 0.0 {R}
*
