!def2-SVP TightSCF

%casscf
 nel        2
 norb       2
 mult       3,1
 nroots     1,2
end

%paras
 Alpha = 0,180,37
end

* int 0 1
 C  0  0  0  0      0   0
 C  1  0  0 1.34    0   0
 H  1  2  0 1.07  120   0
 H  1  2  3 1.07  120 180
 H  2  1  3 1.07  120 {Alpha}
 H  2  1  3 1.07  120 {Alpha+180}
edn
