! ExtrapolateEP2(2/3,ANO,MP2) TightSCF Conv Bohrs
* int 0 1
O 0 0 0  0 0 0
H 1 0 0  1.81975 0 0
H 1 2 0  1.81975 105.237 0
*
