#
# twisting the double bond of C2H4
#
! SV(P) def2-TZVP/C SmallPrint NoPop MRACPF
%casscf nel         2
        norb        2
        mult        1
        nroots      1
        TrafoStep  RI
        end
%mrci   tsel 1e-10
        tpre 1e-10
        end
%method scanguess pmodel
        end
%paras  R= 1.3385
        Alpha=0,180,18
        end
* int 0 1
C  0  0  0  0      0   0
C  1  0  0 {R}     0   0
H  1  2  0 1.07  120   0
H  1  2  3 1.07  120 180
H  2  1  3 1.07  120 {Alpha}
H  2  1  3 1.07  120 {Alpha+180}
*
