! BLYP D3 def2-QZVPP Opt

%paras R= 2.5,4.0,16
end

%geom Constraints
      { C 0 C }
      { C 1 C }
      end
end

* xyz 0 1
Ar    0.0000000    0.0000000    {R}
H     0.0000000    0.0000000    0.0000000
C     0.0000000    0.0000000   -1.0951073
H     0.5163499    0.8943443   -1.4604101
H     0.5163499   -0.8943443   -1.4604101
H    -1.0326998    0.0000000   -1.4604101
*
