! cc-pVTZ PModel NoIter

%scf
 avas
  tol 0.4
  system
   center 0, 1, 2, 3, 4, 5, 10, 11, 12
   type  pz, pz, pz, pz, pz, pz, pz, pz, pz
  end
 end
end

* xyz 0 1
 C          0.4512549872        2.3796411953        0.0577773122
 C          0.1094760583        1.0035547288       -0.1566676092
 C          1.7801675822        2.8072137170        0.2571892289
 C          2.7806901872        1.8262977582        0.2356692574
 C          2.4656511421        0.4546661378        0.0230301052
 C          1.1452272475        0.0339609344       -0.1736410480
 H          2.0259509453        3.8615102004        0.4187388370
 H          3.8237760997        2.1214062744        0.3833595222
 H          3.2752609035       -0.2812140701        0.0109117373
 H          0.9203743659       -1.0244858148       -0.3388820373
 C         -1.3215206968        0.9316755285       -0.3177965838
 C         -1.7965156128        2.2386249398       -0.2022300378
 N         -0.7296902726        3.0958334808        0.0227806512
 H         -0.8107596679        4.0971334562        0.1485860796
 H         -2.8167763088        2.6080109542       -0.2688439980
 C         -2.1029028025       -0.3291635000       -0.5688909937
 C         -3.4238543678       -0.4065989881        0.2267575199
 H         -1.4745479852       -1.1909157350       -0.2884954137
 H         -2.3461010681       -0.4478113906       -1.6421457333
 C         -3.9423325138       -1.8379287141        0.1258142785
 N         -4.3742952299        0.5836598444       -0.2812451173
 H         -3.2051519657       -0.1892488262        1.2846794690
 O         -3.2924970778       -2.6708957465        0.9924074621
 O         -4.8043368378       -2.2232843366       -0.6488988164
 H         -3.6480373076       -3.5631013900        0.8277551234
 H         -5.2270970579        0.5578136152        0.2816027849
 H         -4.6658127461        0.2911757460       -1.2180819802
*
