!Def2-SVP TightSCF

%casscf
 nel         2
 norb        2
 mult        1
 nroots      1
end

# Scanning from the outside to the inside
%paras
 R [4.1 3.8 3.5 3.2 2.9 2.6 2.4 2.2
    2 1.7 1.5 1.3 1.1 1 0.9 0.8
    0.75 0.7 0.65 0.6]
end

* xyz 0 1
 H   0.0   0.0   0.0
 H   0.0   0.0   {R}
end
