! TRAH Def2-SVP Def2-SVP/C TightSCF

%casscf
  nel 6
  norb 6
  mult 1
  nroots 2
end

*xyz 0 1
  N   0.0   0.0   0.0
  N   0.0   0.0   1.1
end
