# CuCl$_4$
! HF
%basis  basis  "SV"
        newGTO Cl "DUNNING-DZP" end
        end
* xyz -2 2
  Cu  0     0     0  newGTO "TZVPP" end
  Cl  2.25  0     0
  Cl -2.25  0     0
  Cl  0     2.25  0
  Cl  0    -2.25  0
*
