! def2-SVP MOREAD

%moinp "locorbs.gbw"

%casscf
 nel     10
 norb    10
 mult    11,1
 nroots  1,1
 refs                              # reference for multiplicity 11
  { 1 1 1 1 1  1  1  1  1  1}
 end
 refs                              # reference for multiplicity 1
  { 1 1 1 1 1 -1 -1 -1 -1 -1}
 end
  cistep ice
 ci
  icetype 1
 end
 actorbs unchanged
end

* xyz -2 11
Fe          0.000000000      0.000000000     -1.343567812
Fe          0.000000000      0.000000000      1.343567812
S           1.071733501      1.373366082      0.000000000
S           1.346714284     -1.345901486     -2.651621449
S          -1.346714284      1.345901486     -2.651621449
S          -1.071733501     -1.373366082      0.000000000
S          -1.346714284      1.345901486      2.651621449
S           1.346714284     -1.345901486      2.651621449
C          -2.485663304      0.362543393     -3.600795276
H          -3.319937516      0.596731755     -3.505882795
H          -2.347446507      0.388292903     -4.463380590
H          -2.472404709     -0.485711203     -3.404167343
C           2.485663304     -0.362543393     -3.600795276
H           3.319937516     -0.596731755     -3.505882795
H           2.347446507     -0.388292903     -4.463380590
H           2.472404709      0.485711203     -3.404167343
C           2.485663304     -0.362543393      3.600795276
H           2.347446507     -0.388292903      4.463380590
H           3.319937516     -0.596731755      3.505882795
H           2.472404709      0.485711203      3.404167343
C          -2.485663304      0.362543393      3.600795276
H          -3.319937516      0.596731755      3.505882795
H          -2.472404709     -0.485711203      3.404167343
H          -2.347446507      0.388292903      4.463380590
*
