#
# My first ORCA calculation :-)
#
! HF DEF2-SVP
* xyz 0 1
  C  0  0  0
  O  0  0  1.13
*
