#
! F12-RI-MP2 cc-pVDZ-F12 cc-pVDZ-F12-CABS cc-pVTZ/C VeryTightSCF PModel

* xyz 0 1
    O    0.000000000000     0.000000000000     0.369372944000
    H    0.783975899000     0.000000000000    -0.184686472000
    H   -0.783975899000     0.000000000000    -0.184686472000
*
