! def2-TZVP  Conv NormalPrint UseSym
! moread
%moinp "Test-SYM-CAS-C2H4-1.mp2nat"
%casscf nel            4
        norb           4
        # This is only here to show that NR can also be used from
        # the start with orbstep
        orbstep    nr
        switchstep nr
        # the lowest singet and triplet states. The new feature
        # is the array "irrep" that lets you give the irrep for
        # a given block. Thus, now you can have several blocks of
        # the same multiplicity but different spatial symmetry
        irrep       0,7
        mult        1,3
        nroots      1,1
        end

* int 0 1
C 0 0 0  0 0 0
C 1 0 0  1.35 0 0
H 1 2 0  1.1 120 0
H 1 2 3  1.1 120 180
H 2 1 3  1.1 120 0
H 2 1 3  1.1 120 180
*
