! Def2-SVP TightSCF MOREAD

%moinp "orbs.gbw"

%casscf
 nel         4
 norb        3
 mult        1,3
 nroots      3,1
end

*int 0 1
C  0 0 0 0.00   0.0    0.00
O  1 0 0 1.20   0.0    0.00
H  1 2 0 1.10 120.0    0.00
H  1 2 3 1.10 120.0  180.00
end
