! ano-pVDZ TightSCF

%casscf
 nel     7
 norb    6
 nroots  3
 mult    2
end

%mrci
 tsel       0
 tpre       0
 donatorbs  2
 densities  5,1
 newblock 2 *
  nroots 3
  excitations none
  refs
   cas(7,6)
  end
 end
end

* int 1 2
 O     0   0   0   0.000000     0.000     0.000
 H     1   0   0   1.012277     0.000     0.000
 H     1   2   0   1.012177   109.288     0.000
end
