! RI-MP2 def2-SVP def2-SVP/C
%mp2 density relaxed end
%elprop dipole     true
        quadrupole true
        end
* int 0 1
O 0 0 0 0      0      0
H 1 0 0 0.9584 0      0
H 1 2 0 0.9584 104.45 0
*
