#
# MP2 optimization example
#
! SCS-MP2 def2-TZVP OPT NoFrozenCore
* int 0 1
 C  0 0 0 0.00   0.0     0.00
 O  1 0 0 1.20   0.0     0.00
 H  1 2 0 1.09 120.0     0.00
 H  1 2 3 1.09 120.0   180.00
*
